Route #1: 11 15 20 37 64 42 1 
Route #2: 30 57 13 66 24 49 16 
Route #3: 34 70 36 33 18 50 40 
Route #4: 47 29 46 35 14 53 7 
Route #5: 68 2 5 71 60 54 52 4 
Route #6: 74 69 45 27 19 10 67 
Route #7: 26 58 72 39 9 56 23 63 51 
Route #8: 6 28 43 41 3 31 12 
Route #9: 38 44 73 62 22 61 21 48 
Route #10: 75 8 59 65 55 25 32 17 
cost 1444.95
